NAME: wi29
COMMENT: ILS com limite de estagnacao = 10 - Fernanda V, Paula Laiz, Stephany | Tempo de execucao: 0s
TYPE: TOUR
DIMENSION: 29
TOTAL_WEIGHT: 27750
TOUR_SECTION
1
2
6
10
11
12
15
19
18
22
23
21
29
28
26
25
27
24
16
20
17
14
13
9
7
3
4
8
5
EOF
